$rem
   JOBTYPE Opt
   EXCHANGE B3LYP
   BASIS 6-31G(d)
   GUI=2
   CHELPG TRUE
   NBO TRUE
$end

$comment
structure_name_charge_analysis
$end

$molecule
atom_positions
$end
